language Essence 1.3

letting can_fly be
        relation((1, 2), (1, 4), (1, 6), (1, 7), (1, 8), (1, 12), (1, 13), (1, 14), (1, 17), (1, 18), (1, 19), (1, 20),
                 (1, 23), (1, 30), (2, 1), (2, 2), (2, 3), (2, 4), (2, 5), (2, 12), (2, 15), (2, 17), (2, 18), (2, 20),
                 (2, 22), (2, 24), (2, 26), (2, 27), (2, 30), (3, 2), (3, 4), (3, 5), (3, 7), (3, 8), (3, 9), (3, 15),
                 (3, 17), (3, 19), (3, 20), (3, 24), (3, 26), (3, 27), (4, 1), (4, 3), (4, 4), (4, 10), (4, 11),
                 (4, 12), (4, 13), (4, 14), (4, 15), (4, 17), (4, 18), (4, 19), (4, 20), (4, 21), (4, 22), (4, 23),
                 (4, 25), (4, 28), (5, 7), (5, 8), (5, 11), (5, 12), (5, 18), (5, 19), (5, 24), (5, 26), (5, 28),
                 (5, 29), (5, 30), (6, 2), (6, 3), (6, 4), (6, 5), (6, 6), (6, 7), (6, 8), (6, 9), (6, 10), (6, 15),
                 (6, 17), (6, 18), (6, 20), (6, 24), (6, 25), (6, 26), (6, 27), (6, 28), (6, 29), (6, 30), (7, 1),
                 (7, 6), (7, 8), (7, 15), (7, 17), (7, 18), (7, 20), (7, 22), (7, 23), (7, 25), (7, 28), (7, 30),
                 (8, 1), (8, 4), (8, 8), (8, 9), (8, 10), (8, 12), (8, 13), (8, 14), (8, 18), (8, 19), (8, 20), (8, 21),
                 (8, 22), (8, 28), (8, 29), (8, 30), (9, 1), (9, 2), (9, 5), (9, 6), (9, 12), (9, 13), (9, 16), (9, 17),
                 (9, 21), (9, 22), (9, 23), (9, 24), (9, 25), (9, 29), (9, 30), (10, 1), (10, 2), (10, 3), (10, 6),
                 (10, 10), (10, 12), (10, 13), (10, 14), (10, 15), (10, 16), (10, 18), (10, 21), (10, 22), (10, 24),
                 (10, 26), (10, 27), (10, 28), (11, 1), (11, 2), (11, 3), (11, 6), (11, 7), (11, 8), (11, 11), (11, 13),
                 (11, 18), (11, 21), (11, 22), (11, 28), (12, 3), (12, 5), (12, 7), (12, 10), (12, 14), (12, 17),
                 (12, 23), (12, 26), (12, 27), (12, 28), (13, 1), (13, 2), (13, 5), (13, 6), (13, 7), (13, 8), (13, 9),
                 (13, 10), (13, 11), (13, 16), (13, 18), (13, 23), (13, 24), (13, 25), (13, 27), (13, 28), (13, 29),
                 (14, 1), (14, 4), (14, 5), (14, 7), (14, 13), (14, 16), (14, 18), (14, 19), (14, 21), (14, 24),
                 (14, 25), (14, 29), (14, 30))
$ Visualisation for can_fly
$  1  2
$  1  4
$  1  6
$  1  7
$  1  8
$  1 12
$  1 13
$  1 14
$  1 17
$  1 18
$  1 19
$  1 20
$  1 23
$  1 30
$  2  1
$  2  2
$  2  3
$  2  4
$  2  5
$  2 12
$  2 15
$  2 17
$  2 18
$  2 20
$  2 22
$  2 24
$  2 26
$  2 27
$  2 30
$  3  2
$  3  4
$  3  5
$  3  7
$  3  8
$  3  9
$  3 15
$  3 17
$  3 19
$  3 20
$  3 24
$  3 26
$  3 27
$  4  1
$  4  3
$  4  4
$  4 10
$  4 11
$  4 12
$  4 13
$  4 14
$  4 15
$  4 17
$  4 18
$  4 19
$  4 20
$  4 21
$  4 22
$  4 23
$  4 25
$  4 28
$  5  7
$  5  8
$  5 11
$  5 12
$  5 18
$  5 19
$  5 24
$  5 26
$  5 28
$  5 29
$  5 30
$  6  2
$  6  3
$  6  4
$  6  5
$  6  6
$  6  7
$  6  8
$  6  9
$  6 10
$  6 15
$  6 17
$  6 18
$  6 20
$  6 24
$  6 25
$  6 26
$  6 27
$  6 28
$  6 29
$  6 30
$  7  1
$  7  6
$  7  8
$  7 15
$  7 17
$  7 18
$  7 20
$  7 22
$  7 23
$  7 25
$  7 28
$  7 30
$  8  1
$  8  4
$  8  8
$  8  9
$  8 10
$  8 12
$  8 13
$  8 14
$  8 18
$  8 19
$  8 20
$  8 21
$  8 22
$  8 28
$  8 29
$  8 30
$  9  1
$  9  2
$  9  5
$  9  6
$  9 12
$  9 13
$  9 16
$  9 17
$  9 21
$  9 22
$  9 23
$  9 24
$  9 25
$  9 29
$  9 30
$ 10  1
$ 10  2
$ 10  3
$ 10  6
$ 10 10
$ 10 12
$ 10 13
$ 10 14
$ 10 15
$ 10 16
$ 10 18
$ 10 21
$ 10 22
$ 10 24
$ 10 26
$ 10 27
$ 10 28
$ 11  1
$ 11  2
$ 11  3
$ 11  6
$ 11  7
$ 11  8
$ 11 11
$ 11 13
$ 11 18
$ 11 21
$ 11 22
$ 11 28
$ 12  3
$ 12  5
$ 12  7
$ 12 10
$ 12 14
$ 12 17
$ 12 23
$ 12 26
$ 12 27
$ 12 28
$ 13  1
$ 13  2
$ 13  5
$ 13  6
$ 13  7
$ 13  8
$ 13  9
$ 13 10
$ 13 11
$ 13 16
$ 13 18
$ 13 23
$ 13 24
$ 13 25
$ 13 27
$ 13 28
$ 13 29
$ 14  1
$ 14  4
$ 14  5
$ 14  7
$ 14 13
$ 14 16
$ 14 18
$ 14 19
$ 14 21
$ 14 24
$ 14 25
$ 14 29
$ 14 30

letting carry_in be
        function(1 --> 16, 2 --> 1, 3 --> 23, 4 --> 22, 5 --> 12, 6 --> 24, 7 --> 25, 8 --> 27, 9 --> 2, 10 --> 26,
                 11 --> 7, 12 --> 28, 13 --> 21, 14 --> 3)
letting maint be {3, 5, 7, 8, 9, 10, 11, 12, 15, 16, 18, 20, 21, 26, 29, 30}
letting maint_freq be 14
letting n_flights be 30
letting n_planes be 14
letting network be
        relation((1, 1), (1, 2), (1, 5), (1, 9), (1, 10), (1, 11), (1, 14), (1, 19), (1, 20), (1, 23), (1, 24), (1, 27),
                 (1, 30), (2, 2), (2, 3), (2, 4), (2, 6), (2, 7), (2, 8), (2, 9), (2, 10), (2, 11), (2, 12), (2, 13),
                 (2, 15), (2, 16), (2, 17), (2, 19), (2, 20), (2, 21), (2, 22), (2, 25), (2, 27), (2, 28), (2, 29),
                 (3, 1), (3, 5), (3, 6), (3, 8), (3, 9), (3, 10), (3, 13), (3, 14), (3, 15), (3, 16), (3, 21), (3, 22),
                 (3, 24), (3, 25), (3, 26), (3, 29), (3, 30), (4, 2), (4, 5), (4, 6), (4, 10), (4, 14), (4, 18),
                 (4, 20), (4, 21), (4, 22), (4, 23), (4, 24), (4, 28), (4, 30), (5, 1), (5, 2), (5, 6), (5, 7), (5, 9),
                 (5, 11), (5, 12), (5, 13), (5, 14), (5, 16), (5, 20), (5, 24), (5, 26), (5, 27), (5, 28), (5, 29),
                 (6, 1), (6, 4), (6, 5), (6, 6), (6, 9), (6, 10), (6, 15), (6, 16), (6, 17), (6, 18), (6, 20), (6, 25),
                 (6, 26), (6, 29), (6, 30), (7, 3), (7, 4), (7, 6), (7, 9), (7, 10), (7, 12), (7, 13), (7, 14), (7, 15),
                 (7, 17), (7, 18), (7, 20), (7, 21), (7, 22), (7, 23), (7, 24), (7, 25), (7, 26), (7, 28), (8, 1),
                 (8, 3), (8, 4), (8, 5), (8, 8), (8, 9), (8, 10), (8, 12), (8, 14), (8, 15), (8, 18), (8, 19), (8, 20),
                 (8, 21), (8, 22), (8, 24), (8, 28), (9, 2), (9, 3), (9, 5), (9, 7), (9, 8), (9, 9), (9, 11), (9, 12),
                 (9, 15), (9, 18), (9, 19), (9, 22), (9, 23), (10, 2), (10, 4), (10, 5), (10, 6), (10, 7), (10, 10),
                 (10, 15), (10, 16), (10, 17), (10, 18), (10, 21), (10, 22), (10, 25), (10, 28), (10, 29), (10, 30),
                 (11, 1), (11, 2), (11, 4), (11, 5), (11, 7), (11, 10), (11, 12), (11, 13), (11, 14), (11, 15),
                 (11, 17), (11, 18), (11, 19), (11, 22), (11, 23), (11, 24), (11, 27), (11, 28), (11, 30), (12, 4),
                 (12, 5), (12, 6), (12, 7), (12, 8), (12, 12), (12, 13), (12, 14), (12, 15), (12, 17), (12, 19),
                 (12, 23), (12, 24), (12, 26), (12, 27), (12, 29), (13, 4), (13, 5), (13, 6), (13, 7), (13, 8),
                 (13, 12), (13, 16), (13, 17), (13, 18), (13, 21), (13, 22), (13, 23), (13, 24), (13, 27), (13, 28),
                 (13, 29), (13, 30), (14, 1), (14, 3), (14, 4), (14, 5), (14, 7), (14, 8), (14, 16), (14, 18), (14, 20),
                 (14, 21), (14, 24), (14, 25), (14, 30), (15, 4), (15, 5), (15, 6), (15, 7), (15, 9), (15, 10),
                 (15, 11), (15, 12), (15, 13), (15, 24), (15, 27), (15, 28), (15, 29), (16, 6), (16, 9), (16, 12),
                 (16, 14), (16, 17), (16, 18), (16, 24), (16, 26), (17, 3), (17, 10), (17, 11), (17, 12), (17, 13),
                 (17, 14), (17, 15), (17, 18), (17, 19), (17, 21), (17, 22), (17, 23), (17, 24), (17, 25), (17, 26),
                 (17, 28), (17, 29), (18, 2), (18, 5), (18, 8), (18, 10), (18, 16), (18, 18), (18, 20), (18, 24),
                 (18, 25), (18, 28), (18, 29), (19, 1), (19, 5), (19, 8), (19, 10), (19, 11), (19, 12), (19, 15),
                 (19, 16), (19, 18), (19, 19), (19, 20), (19, 23), (19, 25), (19, 27), (20, 1), (20, 2), (20, 7),
                 (20, 8), (20, 9), (20, 10), (20, 11), (20, 13), (20, 15), (20, 18), (20, 21), (20, 22), (20, 24),
                 (20, 25), (20, 28), (20, 29), (20, 30), (21, 2), (21, 3), (21, 7), (21, 8), (21, 9), (21, 10),
                 (21, 12), (21, 14), (21, 16), (21, 17), (21, 21), (21, 23), (21, 24), (21, 27), (21, 28), (21, 29),
                 (21, 30), (22, 1), (22, 3), (22, 4), (22, 5), (22, 7), (22, 8), (22, 9), (22, 10), (22, 14), (22, 16),
                 (22, 17), (22, 21), (22, 23), (22, 29), (23, 1), (23, 6), (23, 10), (23, 14), (23, 15), (23, 17),
                 (23, 20), (23, 21), (23, 23), (23, 25), (23, 27), (23, 28), (23, 30), (24, 3), (24, 5), (24, 11),
                 (24, 15), (24, 16), (24, 17), (24, 21), (24, 26), (24, 27), (24, 29), (24, 30), (25, 5), (25, 8),
                 (25, 9), (25, 11), (25, 16), (25, 18), (25, 21), (25, 23), (25, 24), (25, 25), (25, 26), (25, 27),
                 (25, 28), (25, 30), (26, 1), (26, 2), (26, 3), (26, 4), (26, 5), (26, 7), (26, 8), (26, 9), (26, 12),
                 (26, 13), (26, 14), (26, 15), (26, 18), (26, 20), (26, 21), (26, 28), (27, 2), (27, 3), (27, 4),
                 (27, 5), (27, 7), (27, 8), (27, 11), (27, 13), (27, 14), (27, 16), (27, 19), (27, 22), (27, 23),
                 (27, 24), (27, 26), (27, 27), (27, 28), (27, 29), (27, 30), (28, 1), (28, 2), (28, 4), (28, 9),
                 (28, 12), (28, 13), (28, 16), (28, 17), (28, 18), (28, 28), (28, 29), (28, 30), (29, 1), (29, 5),
                 (29, 8), (29, 9), (29, 14), (29, 16), (29, 18), (29, 19), (29, 21), (29, 24), (29, 26), (29, 28),
                 (29, 30), (30, 2), (30, 3), (30, 4), (30, 6), (30, 7), (30, 11), (30, 14), (30, 17), (30, 18),
                 (30, 20), (30, 22), (30, 24), (30, 25), (30, 26), (30, 30))
$ Visualisation for network
$  1  1
$  1  2
$  1  5
$  1  9
$  1 10
$  1 11
$  1 14
$  1 19
$  1 20
$  1 23
$  1 24
$  1 27
$  1 30
$  2  2
$  2  3
$  2  4
$  2  6
$  2  7
$  2  8
$  2  9
$  2 10
$  2 11
$  2 12
$  2 13
$  2 15
$  2 16
$  2 17
$  2 19
$  2 20
$  2 21
$  2 22
$  2 25
$  2 27
$  2 28
$  2 29
$  3  1
$  3  5
$  3  6
$  3  8
$  3  9
$  3 10
$  3 13
$  3 14
$  3 15
$  3 16
$  3 21
$  3 22
$  3 24
$  3 25
$  3 26
$  3 29
$  3 30
$  4  2
$  4  5
$  4  6
$  4 10
$  4 14
$  4 18
$  4 20
$  4 21
$  4 22
$  4 23
$  4 24
$  4 28
$  4 30
$  5  1
$  5  2
$  5  6
$  5  7
$  5  9
$  5 11
$  5 12
$  5 13
$  5 14
$  5 16
$  5 20
$  5 24
$  5 26
$  5 27
$  5 28
$  5 29
$  6  1
$  6  4
$  6  5
$  6  6
$  6  9
$  6 10
$  6 15
$  6 16
$  6 17
$  6 18
$  6 20
$  6 25
$  6 26
$  6 29
$  6 30
$  7  3
$  7  4
$  7  6
$  7  9
$  7 10
$  7 12
$  7 13
$  7 14
$  7 15
$  7 17
$  7 18
$  7 20
$  7 21
$  7 22
$  7 23
$  7 24
$  7 25
$  7 26
$  7 28
$  8  1
$  8  3
$  8  4
$  8  5
$  8  8
$  8  9
$  8 10
$  8 12
$  8 14
$  8 15
$  8 18
$  8 19
$  8 20
$  8 21
$  8 22
$  8 24
$  8 28
$  9  2
$  9  3
$  9  5
$  9  7
$  9  8
$  9  9
$  9 11
$  9 12
$  9 15
$  9 18
$  9 19
$  9 22
$  9 23
$ 10  2
$ 10  4
$ 10  5
$ 10  6
$ 10  7
$ 10 10
$ 10 15
$ 10 16
$ 10 17
$ 10 18
$ 10 21
$ 10 22
$ 10 25
$ 10 28
$ 10 29
$ 10 30
$ 11  1
$ 11  2
$ 11  4
$ 11  5
$ 11  7
$ 11 10
$ 11 12
$ 11 13
$ 11 14
$ 11 15
$ 11 17
$ 11 18
$ 11 19
$ 11 22
$ 11 23
$ 11 24
$ 11 27
$ 11 28
$ 11 30
$ 12  4
$ 12  5
$ 12  6
$ 12  7
$ 12  8
$ 12 12
$ 12 13
$ 12 14
$ 12 15
$ 12 17
$ 12 19
$ 12 23
$ 12 24
$ 12 26
$ 12 27
$ 12 29
$ 13  4
$ 13  5
$ 13  6
$ 13  7
$ 13  8
$ 13 12
$ 13 16
$ 13 17
$ 13 18
$ 13 21
$ 13 22
$ 13 23
$ 13 24
$ 13 27
$ 13 28
$ 13 29
$ 13 30
$ 14  1
$ 14  3
$ 14  4
$ 14  5
$ 14  7
$ 14  8
$ 14 16
$ 14 18
$ 14 20
$ 14 21
$ 14 24
$ 14 25
$ 14 30
$ 15  4
$ 15  5
$ 15  6
$ 15  7
$ 15  9
$ 15 10
$ 15 11
$ 15 12
$ 15 13
$ 15 24
$ 15 27
$ 15 28
$ 15 29
$ 16  6
$ 16  9
$ 16 12
$ 16 14
$ 16 17
$ 16 18
$ 16 24
$ 16 26
$ 17  3
$ 17 10
$ 17 11
$ 17 12
$ 17 13
$ 17 14
$ 17 15
$ 17 18
$ 17 19
$ 17 21
$ 17 22
$ 17 23
$ 17 24
$ 17 25
$ 17 26
$ 17 28
$ 17 29
$ 18  2
$ 18  5
$ 18  8
$ 18 10
$ 18 16
$ 18 18
$ 18 20
$ 18 24
$ 18 25
$ 18 28
$ 18 29
$ 19  1
$ 19  5
$ 19  8
$ 19 10
$ 19 11
$ 19 12
$ 19 15
$ 19 16
$ 19 18
$ 19 19
$ 19 20
$ 19 23
$ 19 25
$ 19 27
$ 20  1
$ 20  2
$ 20  7
$ 20  8
$ 20  9
$ 20 10
$ 20 11
$ 20 13
$ 20 15
$ 20 18
$ 20 21
$ 20 22
$ 20 24
$ 20 25
$ 20 28
$ 20 29
$ 20 30
$ 21  2
$ 21  3
$ 21  7
$ 21  8
$ 21  9
$ 21 10
$ 21 12
$ 21 14
$ 21 16
$ 21 17
$ 21 21
$ 21 23
$ 21 24
$ 21 27
$ 21 28
$ 21 29
$ 21 30
$ 22  1
$ 22  3
$ 22  4
$ 22  5
$ 22  7
$ 22  8
$ 22  9
$ 22 10
$ 22 14
$ 22 16
$ 22 17
$ 22 21
$ 22 23
$ 22 29
$ 23  1
$ 23  6
$ 23 10
$ 23 14
$ 23 15
$ 23 17
$ 23 20
$ 23 21
$ 23 23
$ 23 25
$ 23 27
$ 23 28
$ 23 30
$ 24  3
$ 24  5
$ 24 11
$ 24 15
$ 24 16
$ 24 17
$ 24 21
$ 24 26
$ 24 27
$ 24 29
$ 24 30
$ 25  5
$ 25  8
$ 25  9
$ 25 11
$ 25 16
$ 25 18
$ 25 21
$ 25 23
$ 25 24
$ 25 25
$ 25 26
$ 25 27
$ 25 28
$ 25 30
$ 26  1
$ 26  2
$ 26  3
$ 26  4
$ 26  5
$ 26  7
$ 26  8
$ 26  9
$ 26 12
$ 26 13
$ 26 14
$ 26 15
$ 26 18
$ 26 20
$ 26 21
$ 26 28
$ 27  2
$ 27  3
$ 27  4
$ 27  5
$ 27  7
$ 27  8
$ 27 11
$ 27 13
$ 27 14
$ 27 16
$ 27 19
$ 27 22
$ 27 23
$ 27 24
$ 27 26
$ 27 27
$ 27 28
$ 27 29
$ 27 30
$ 28  1
$ 28  2
$ 28  4
$ 28  9
$ 28 12
$ 28 13
$ 28 16
$ 28 17
$ 28 18
$ 28 28
$ 28 29
$ 28 30
$ 29  1
$ 29  5
$ 29  8
$ 29  9
$ 29 14
$ 29 16
$ 29 18
$ 29 19
$ 29 21
$ 29 24
$ 29 26
$ 29 28
$ 29 30
$ 30  2
$ 30  3
$ 30  4
$ 30  6
$ 30  7
$ 30 11
$ 30 14
$ 30 17
$ 30 18
$ 30 20
$ 30 22
$ 30 24
$ 30 25
$ 30 26
$ 30 30

